NAME          input150
ROWS
 L  R0001
 N  R0002
COLUMNS
    INT1      'MARKER'                 'INTORG'
    C0001     R0001     3695
    C0001     R0002     -3705
    C0002     R0001     2011
    C0002     R0002     -2021
    C0003     R0001     214
    C0003     R0002     -224
    C0004     R0001     1232
    C0004     R0002     -1242
    C0005     R0001     3448
    C0005     R0002     -3458
    C0006     R0001     859
    C0006     R0002     -869
    C0007     R0001     1101
    C0007     R0002     -1111
    C0008     R0001     4235
    C0008     R0002     -4245
    C0009     R0001     1183
    C0009     R0002     -1193
    C0010     R0001     3618
    C0010     R0002     -3628
    C0011     R0001     4852
    C0011     R0002     -4862
    C0012     R0001     692
    C0012     R0002     -702
    C0013     R0001     653
    C0013     R0002     -663
    C0014     R0001     3083
    C0014     R0002     -3093
    C0015     R0001     2262
    C0015     R0002     -2272
    C0016     R0001     3198
    C0016     R0002     -3208
    C0017     R0001     1259
    C0017     R0002     -1269
    C0018     R0001     4763
    C0018     R0002     -4773
    C0019     R0001     3449
    C0019     R0002     -3459
    C0020     R0001     3762
    C0020     R0002     -3772
    C0021     R0001     818
    C0021     R0002     -828
    C0022     R0001     3441
    C0022     R0002     -3451
    C0023     R0001     2733
    C0023     R0002     -2743
    C0024     R0001     2894
    C0024     R0002     -2904
    C0025     R0001     505
    C0025     R0002     -515
    C0026     R0001     466
    C0026     R0002     -476
    C0027     R0001     3171
    C0027     R0002     -3181
    C0028     R0001     3760
    C0028     R0002     -3770
    C0029     R0001     1659
    C0029     R0002     -1669
    C0030     R0001     1520
    C0030     R0002     -1530
    C0031     R0001     1622
    C0031     R0002     -1632
    C0032     R0001     354
    C0032     R0002     -364
    C0033     R0001     3531
    C0033     R0002     -3541
    C0034     R0001     1835
    C0034     R0002     -1845
    C0035     R0001     1586
    C0035     R0002     -1596
    C0036     R0001     1979
    C0036     R0002     -1989
    C0037     R0001     2694
    C0037     R0002     -2704
    C0038     R0001     2686
    C0038     R0002     -2696
    C0039     R0001     1214
    C0039     R0002     -1224
    C0040     R0001     3876
    C0040     R0002     -3886
    C0041     R0001     1305
    C0041     R0002     -1315
    C0042     R0001     1067
    C0042     R0002     -1077
    C0043     R0001     4567
    C0043     R0002     -4577
    C0044     R0001     1958
    C0044     R0002     -1968
    C0045     R0001     4150
    C0045     R0002     -4160
    C0046     R0001     1829
    C0046     R0002     -1839
    C0047     R0001     157
    C0047     R0002     -167
    C0048     R0001     410
    C0048     R0002     -420
    C0049     R0001     1592
    C0049     R0002     -1602
    C0050     R0001     3605
    C0050     R0002     -3615
    C0051     R0001     4171
    C0051     R0002     -4181
    C0052     R0001     2410
    C0052     R0002     -2420
    C0053     R0001     2046
    C0053     R0002     -2056
    C0054     R0001     1904
    C0054     R0002     -1914
    C0055     R0001     304
    C0055     R0002     -314
    C0056     R0001     2551
    C0056     R0002     -2561
    C0057     R0001     2370
    C0057     R0002     -2380
    C0058     R0001     3474
    C0058     R0002     -3484
    C0059     R0001     1312
    C0059     R0002     -1322
    C0060     R0001     4028
    C0060     R0002     -4038
    C0061     R0001     4994
    C0061     R0002     -5004
    C0062     R0001     2933
    C0062     R0002     -2943
    C0063     R0001     4382
    C0063     R0002     -4392
    C0064     R0001     3525
    C0064     R0002     -3535
    C0065     R0001     4767
    C0065     R0002     -4777
    C0066     R0001     969
    C0066     R0002     -979
    C0067     R0001     505
    C0067     R0002     -515
    C0068     R0001     2462
    C0068     R0002     -2472
    C0069     R0001     3654
    C0069     R0002     -3664
    C0070     R0001     1718
    C0070     R0002     -1728
    C0071     R0001     1338
    C0071     R0002     -1348
    C0072     R0001     4959
    C0072     R0002     -4969
    C0073     R0001     2785
    C0073     R0002     -2795
    C0074     R0001     905
    C0074     R0002     -915
    C0075     R0001     1917
    C0075     R0002     -1927
    C0076     R0001     1935
    C0076     R0002     -1945
    C0077     R0001     2733
    C0077     R0002     -2743
    C0078     R0001     2074
    C0078     R0002     -2084
    C0079     R0001     2344
    C0079     R0002     -2354
    C0080     R0001     4325
    C0080     R0002     -4335
    C0081     R0001     679
    C0081     R0002     -689
    C0082     R0001     1516
    C0082     R0002     -1526
    C0083     R0001     1735
    C0083     R0002     -1745
    C0084     R0001     2725
    C0084     R0002     -2735
    C0085     R0001     3419
    C0085     R0002     -3429
    C0086     R0001     2039
    C0086     R0002     -2049
    C0087     R0001     276
    C0087     R0002     -286
    C0088     R0001     790
    C0088     R0002     -800
    C0089     R0001     513
    C0089     R0002     -523
    C0090     R0001     1587
    C0090     R0002     -1597
    C0091     R0001     4818
    C0091     R0002     -4828
    C0092     R0001     508
    C0092     R0002     -518
    C0093     R0001     4520
    C0093     R0002     -4530
    C0094     R0001     4200
    C0094     R0002     -4210
    C0095     R0001     4032
    C0095     R0002     -4042
    C0096     R0001     4288
    C0096     R0002     -4298
    C0097     R0001     169
    C0097     R0002     -179
    C0098     R0001     4536
    C0098     R0002     -4546
    C0099     R0001     1750
    C0099     R0002     -1760
    C0100     R0001     3823
    C0100     R0002     -3833
    C0101     R0001     1255
    C0101     R0002     -1265
    C0102     R0001     3087
    C0102     R0002     -3097
    C0103     R0001     3783
    C0103     R0002     -3793
    C0104     R0001     4039
    C0104     R0002     -4049
    C0105     R0001     3991
    C0105     R0002     -4001
    C0106     R0001     701
    C0106     R0002     -711
    C0107     R0001     975
    C0107     R0002     -985
    C0108     R0001     1725
    C0108     R0002     -1735
    C0109     R0001     2774
    C0109     R0002     -2784
    C0110     R0001     3319
    C0110     R0002     -3329
    C0111     R0001     1050
    C0111     R0002     -1060
    C0112     R0001     3452
    C0112     R0002     -3462
    C0113     R0001     4834
    C0113     R0002     -4844
    C0114     R0001     2785
    C0114     R0002     -2795
    C0115     R0001     1177
    C0115     R0002     -1187
    C0116     R0001     3254
    C0116     R0002     -3264
    C0117     R0001     4823
    C0117     R0002     -4833
    C0118     R0001     1453
    C0118     R0002     -1463
    C0119     R0001     4043
    C0119     R0002     -4053
    C0120     R0001     337
    C0120     R0002     -347
    C0121     R0001     3040
    C0121     R0002     -3050
    C0122     R0001     3861
    C0122     R0002     -3871
    C0123     R0001     844
    C0123     R0002     -854
    C0124     R0001     2560
    C0124     R0002     -2570
    C0125     R0001     3062
    C0125     R0002     -3072
    C0126     R0001     4875
    C0126     R0002     -4885
    C0127     R0001     1848
    C0127     R0002     -1858
    C0128     R0001     3231
    C0128     R0002     -3241
    C0129     R0001     4412
    C0129     R0002     -4422
    C0130     R0001     3597
    C0130     R0002     -3607
    C0131     R0001     2055
    C0131     R0002     -2065
    C0132     R0001     667
    C0132     R0002     -677
    C0133     R0001     1684
    C0133     R0002     -1694
    C0134     R0001     838
    C0134     R0002     -848
    C0135     R0001     4706
    C0135     R0002     -4716
    C0136     R0001     676
    C0136     R0002     -686
    C0137     R0001     1538
    C0137     R0002     -1548
    C0138     R0001     681
    C0138     R0002     -691
    C0139     R0001     2401
    C0139     R0002     -2411
    C0140     R0001     4311
    C0140     R0002     -4321
    C0141     R0001     4000
    C0141     R0002     -4010
    C0142     R0001     3451
    C0142     R0002     -3461
    C0143     R0001     2764
    C0143     R0002     -2774
    C0144     R0001     3834
    C0144     R0002     -3844
    C0145     R0001     1236
    C0145     R0002     -1246
    C0146     R0001     3941
    C0146     R0002     -3951
    C0147     R0001     2088
    C0147     R0002     -2098
    C0148     R0001     1060
    C0148     R0002     -1070
    C0149     R0001     394
    C0149     R0002     -404
    C0150     R0001     1131
    C0150     R0002     -1141
    INT1END   'MARKER'                 'INTEND'
RHS
    B         R0001     257539
BOUNDS
 UP BOUND     C0001     1
 UP BOUND     C0002     1
 UP BOUND     C0003     1
 UP BOUND     C0004     1
 UP BOUND     C0005     1
 UP BOUND     C0006     1
 UP BOUND     C0007     1
 UP BOUND     C0008     1
 UP BOUND     C0009     1
 UP BOUND     C0010     1
 UP BOUND     C0011     1
 UP BOUND     C0012     1
 UP BOUND     C0013     1
 UP BOUND     C0014     1
 UP BOUND     C0015     1
 UP BOUND     C0016     1
 UP BOUND     C0017     1
 UP BOUND     C0018     1
 UP BOUND     C0019     1
 UP BOUND     C0020     1
 UP BOUND     C0021     1
 UP BOUND     C0022     1
 UP BOUND     C0023     1
 UP BOUND     C0024     1
 UP BOUND     C0025     1
 UP BOUND     C0026     1
 UP BOUND     C0027     1
 UP BOUND     C0028     1
 UP BOUND     C0029     1
 UP BOUND     C0030     1
 UP BOUND     C0031     1
 UP BOUND     C0032     1
 UP BOUND     C0033     1
 UP BOUND     C0034     1
 UP BOUND     C0035     1
 UP BOUND     C0036     1
 UP BOUND     C0037     1
 UP BOUND     C0038     1
 UP BOUND     C0039     1
 UP BOUND     C0040     1
 UP BOUND     C0041     1
 UP BOUND     C0042     1
 UP BOUND     C0043     1
 UP BOUND     C0044     1
 UP BOUND     C0045     1
 UP BOUND     C0046     1
 UP BOUND     C0047     1
 UP BOUND     C0048     1
 UP BOUND     C0049     1
 UP BOUND     C0050     1
 UP BOUND     C0051     1
 UP BOUND     C0052     1
 UP BOUND     C0053     1
 UP BOUND     C0054     1
 UP BOUND     C0055     1
 UP BOUND     C0056     1
 UP BOUND     C0057     1
 UP BOUND     C0058     1
 UP BOUND     C0059     1
 UP BOUND     C0060     1
 UP BOUND     C0061     1
 UP BOUND     C0062     1
 UP BOUND     C0063     1
 UP BOUND     C0064     1
 UP BOUND     C0065     1
 UP BOUND     C0066     1
 UP BOUND     C0067     1
 UP BOUND     C0068     1
 UP BOUND     C0069     1
 UP BOUND     C0070     1
 UP BOUND     C0071     1
 UP BOUND     C0072     1
 UP BOUND     C0073     1
 UP BOUND     C0074     1
 UP BOUND     C0075     1
 UP BOUND     C0076     1
 UP BOUND     C0077     1
 UP BOUND     C0078     1
 UP BOUND     C0079     1
 UP BOUND     C0080     1
 UP BOUND     C0081     1
 UP BOUND     C0082     1
 UP BOUND     C0083     1
 UP BOUND     C0084     1
 UP BOUND     C0085     1
 UP BOUND     C0086     1
 UP BOUND     C0087     1
 UP BOUND     C0088     1
 UP BOUND     C0089     1
 UP BOUND     C0090     1
 UP BOUND     C0091     1
 UP BOUND     C0092     1
 UP BOUND     C0093     1
 UP BOUND     C0094     1
 UP BOUND     C0095     1
 UP BOUND     C0096     1
 UP BOUND     C0097     1
 UP BOUND     C0098     1
 UP BOUND     C0099     1
 UP BOUND     C0100     1
 UP BOUND     C0101     1
 UP BOUND     C0102     1
 UP BOUND     C0103     1
 UP BOUND     C0104     1
 UP BOUND     C0105     1
 UP BOUND     C0106     1
 UP BOUND     C0107     1
 UP BOUND     C0108     1
 UP BOUND     C0109     1
 UP BOUND     C0110     1
 UP BOUND     C0111     1
 UP BOUND     C0112     1
 UP BOUND     C0113     1
 UP BOUND     C0114     1
 UP BOUND     C0115     1
 UP BOUND     C0116     1
 UP BOUND     C0117     1
 UP BOUND     C0118     1
 UP BOUND     C0119     1
 UP BOUND     C0120     1
 UP BOUND     C0121     1
 UP BOUND     C0122     1
 UP BOUND     C0123     1
 UP BOUND     C0124     1
 UP BOUND     C0125     1
 UP BOUND     C0126     1
 UP BOUND     C0127     1
 UP BOUND     C0128     1
 UP BOUND     C0129     1
 UP BOUND     C0130     1
 UP BOUND     C0131     1
 UP BOUND     C0132     1
 UP BOUND     C0133     1
 UP BOUND     C0134     1
 UP BOUND     C0135     1
 UP BOUND     C0136     1
 UP BOUND     C0137     1
 UP BOUND     C0138     1
 UP BOUND     C0139     1
 UP BOUND     C0140     1
 UP BOUND     C0141     1
 UP BOUND     C0142     1
 UP BOUND     C0143     1
 UP BOUND     C0144     1
 UP BOUND     C0145     1
 UP BOUND     C0146     1
 UP BOUND     C0147     1
 UP BOUND     C0148     1
 UP BOUND     C0149     1
 UP BOUND     C0150     1
ENDATA
